p edge 100 300
e 1 6
e 1 7
e 1 68
e 2 9
e 2 59
e 2 89
e 3 30
e 3 48
e 3 54
e 4 75
e 4 94
e 4 99
e 5 22
e 5 24
e 5 48
e 6 16
e 6 17
e 6 61
e 7 26
e 7 28
e 7 75
e 8 4
e 8 23
e 8 90
e 9 30
e 9 81
e 9 84
e 10 24
e 10 27
e 10 82
e 11 66
e 11 72
e 11 95
e 12 50
e 12 51
e 12 73
e 13 41
e 13 53
e 13 96
e 14 27
e 14 48
e 14 85
e 15 31
e 15 39
e 15 97
e 16 22
e 16 35
e 16 44
e 17 45
e 17 69
e 17 89
e 18 52
e 18 71
e 18 78
e 19 2
e 19 41
e 19 99
e 20 16
e 20 46
e 20 100
e 21 23
e 21 28
e 21 79
e 22 14
e 22 49
e 22 77
e 23 36
e 23 44
e 23 55
e 24 4
e 24 57
e 24 90
e 25 16
e 25 35
e 25 86
e 26 14
e 26 39
e 26 70
e 27 32
e 27 38
e 27 86
e 28 60
e 28 85
e 28 89
e 29 25
e 29 79
e 29 88
e 30 63
e 30 69
e 30 81
e 31 49
e 31 62
e 31 71
e 32 11
e 32 12
e 32 19
e 33 3
e 33 16
e 33 93
e 34 33
e 34 33
e 34 91
e 35 48
e 35 69
e 35 82
e 36 44
e 36 89
e 36 94
e 37 2
e 37 14
e 37 28
e 38 1
e 38 34
e 38 44
e 39 48
e 39 88
e 39 90
e 40 23
e 40 24
e 40 57
e 41 55
e 41 85
e 41 89
e 42 16
e 42 48
e 42 72
e 43 26
e 43 36
e 43 87
e 44 4
e 44 12
e 44 52
e 45 6
e 45 14
e 45 75
e 46 18
e 46 45
e 46 72
e 47 2
e 47 14
e 47 36
e 48 7
e 48 8
e 48 58
e 49 40
e 49 51
e 49 53
e 50 49
e 50 54
e 50 71
e 51 40
e 51 59
e 51 89
e 52 7
e 52 14
e 52 67
e 53 43
e 53 58
e 53 74
e 54 32
e 54 91
e 54 100
e 55 23
e 55 38
e 55 57
e 56 40
e 56 41
e 56 93
e 57 11
e 57 47
e 57 87
e 58 37
e 58 56
e 58 73
e 59 32
e 59 60
e 59 74
e 60 1
e 60 36
e 60 92
e 61 25
e 61 29
e 61 64
e 62 39
e 62 45
e 62 64
e 63 51
e 63 52
e 63 80
e 64 39
e 64 45
e 64 53
e 65 44
e 65 45
e 65 61
e 66 15
e 66 23
e 66 83
e 67 5
e 67 34
e 67 89
e 68 49
e 68 49
e 68 76
e 69 46
e 69 48
e 69 83
e 70 2
e 70 59
e 70 63
e 71 9
e 71 23
e 71 50
e 72 8
e 72 33
e 72 42
e 73 49
e 73 50
e 73 89
e 74 21
e 74 42
e 74 62
e 75 8
e 75 13
e 75 21
e 76 33
e 76 34
e 76 62
e 77 17
e 77 28
e 77 59
e 78 20
e 78 62
e 78 71
e 79 30
e 79 67
e 79 84
e 80 5
e 80 11
e 80 37
e 81 4
e 81 13
e 81 39
e 82 92
e 82 96
e 82 98
e 83 23
e 83 67
e 83 87
e 84 28
e 84 87
e 84 89
e 85 65
e 85 81
e 85 90
e 86 9
e 86 52
e 86 83
e 87 56
e 87 83
e 87 93
e 88 32
e 88 71
e 88 99
e 89 4
e 89 14
e 89 84
e 90 45
e 90 78
e 90 91
e 91 71
e 91 75
e 91 98
e 92 5
e 92 8
e 92 46
e 93 34
e 93 45
e 93 92
e 94 63
e 94 69
e 94 76
e 95 11
e 95 15
e 95 26
e 96 18
e 96 26
e 96 31
e 97 21
e 97 40
e 97 64
e 98 3
e 98 43
e 98 62
e 99 10
e 99 44
e 99 50
e 100 41
e 100 76
e 100 95
